c CNF file generated from BLIF2CNF script.
c Original BLIF file was blif/styr.blif
p cnf 287 1415
 -1 0
- -1 0
1 -   0
-1 - 0
 -2 0
 -2 0
2 - -  0
-2 - 0
-3 -5 0
5 3  0
-5 4 0
-4 5  0
-6 -8 0
8 6  0
-8 7 0
-7 8  0
-9 -11 0
11 9  0
-11 10 0
-10 11  0
-12 -14 0
14 12  0
-14 13 0
-13 14  0
-15 -17 0
17 15  0
-17 16 0
-16 17  0
-18 -20 0
20 18  0
-20 19 0
-19 20  0
-21 -23 0
23 21  0
-23 22 0
-22 23  0
-24 -26 0
26 24  0
-26 25 0
-25 26  0
-27 -29 0
29 27  0
-29 28 0
-28 29  0
-30 -32 0
32 30  0
-32 31 0
-31 32  0
-33 -35 0
35 33  0
-35 34 0
-34 35  0
-36 -38 0
38 36  0
-38 37 0
-37 38  0
-39 -41 0
41 39  0
-41 40 0
-40 41  0
-42 -44 0
44 42  0
-44 43 0
-43 44  0
-45 -47 0
47 45  0
-47 46 0
-46 47  0
48 -58 0
-49 -58 0
-50 -58 0
51 -58 0
52 -58 0
53 -58 0
-54 -58 0
-55 -58 0
56 -58 0
58 -48 49 50 -51 -52 -53 54 55 -56  0
-58 57 0
-57 58  0
48 -61 0
-49 -61 0
-50 -61 0
51 -61 0
52 -61 0
-59 -61 0
-53 -61 0
54 -61 0
-55 -61 0
61 -48 49 50 -51 -52 59 53 -54 55  0
-61 60 0
-60 61  0
48 -64 0
-50 -64 0
51 -64 0
-52 -64 0
-62 -64 0
-59 -64 0
53 -64 0
-54 -64 0
-55 -64 0
-56 -64 0
64 -48 50 -51 52 62 59 -53 54 55 56  0
-64 63 0
-63 64  0
48 -67 0
-49 -67 0
-50 -67 0
-51 -67 0
-52 -67 0
65 -67 0
-59 -67 0
53 -67 0
-54 -67 0
55 -67 0
67 -48 49 50 51 52 -65 59 -53 54 -55  0
-67 66 0
-66 67  0
68 -70 0
50 -70 0
51 -70 0
-59 -70 0
-53 -70 0
54 -70 0
-55 -70 0
56 -70 0
70 -68 -50 -51 59 53 -54 55 -56  0
-70 69 0
-69 70  0
48 -72 0
-49 -72 0
-50 -72 0
-51 -72 0
-52 -72 0
65 -72 0
59 -72 0
53 -72 0
-54 -72 0
56 -72 0
72 -48 49 50 51 52 -65 -59 -53 54 -56  0
-72 71 0
-71 72  0
48 -74 0
-49 -74 0
-50 -74 0
51 -74 0
-52 -74 0
-59 -74 0
-53 -74 0
54 -74 0
-55 -74 0
-56 -74 0
74 -48 49 50 -51 52 59 53 -54 55 56  0
-74 73 0
-73 74  0
48 -76 0
-49 -76 0
-50 -76 0
-51 -76 0
-52 -76 0
65 -76 0
-53 -76 0
54 -76 0
-55 -76 0
56 -76 0
76 -48 49 50 51 52 -65 53 -54 55 -56  0
-76 75 0
-75 76  0
48 -78 0
-50 -78 0
-51 -78 0
52 -78 0
-59 -78 0
-53 -78 0
54 -78 0
55 -78 0
56 -78 0
78 -48 50 51 -52 59 53 -54 -55 -56  0
-78 77 0
-77 78  0
48 -80 0
-49 -80 0
-50 -80 0
51 -80 0
-59 -80 0
-53 -80 0
-54 -80 0
-55 -80 0
-56 -80 0
80 -48 49 50 -51 59 53 54 55 56  0
-80 79 0
-79 80  0
48 -82 0
-49 -82 0
50 -82 0
-51 -82 0
59 -82 0
53 -82 0
-54 -82 0
55 -82 0
-56 -82 0
82 -48 49 -50 51 -59 -53 54 -55 56  0
-82 81 0
-81 82  0
48 -84 0
-50 -84 0
51 -84 0
-52 -84 0
59 -84 0
-53 -84 0
-54 -84 0
55 -84 0
56 -84 0
84 -48 50 -51 52 -59 53 54 -55 -56  0
-84 83 0
-83 84  0
48 -86 0
-50 -86 0
51 -86 0
-52 -86 0
-59 -86 0
53 -86 0
54 -86 0
-55 -86 0
-56 -86 0
86 -48 50 -51 52 59 -53 -54 55 56  0
-86 85 0
-85 86  0
48 -88 0
-50 -88 0
52 -88 0
-62 -88 0
-59 -88 0
53 -88 0
-55 -88 0
-56 -88 0
88 -48 50 -52 62 59 -53 55 56  0
-88 87 0
-87 88  0
48 -90 0
-49 -90 0
50 -90 0
-51 -90 0
-59 -90 0
-53 -90 0
-54 -90 0
-55 -90 0
-56 -90 0
90 -48 49 -50 51 59 53 54 55 56  0
-90 89 0
-89 90  0
-48 -92 0
68 -92 0
-59 -92 0
-53 -92 0
54 -92 0
-55 -92 0
56 -92 0
92 48 -68 59 53 -54 55 -56  0
-92 91 0
-91 92  0
48 -94 0
-49 -94 0
-50 -94 0
-51 -94 0
52 -94 0
-59 -94 0
-53 -94 0
-54 -94 0
-55 -94 0
-56 -94 0
94 -48 49 50 51 -52 59 53 54 55 56  0
-94 93 0
-93 94  0
48 -96 0
-51 -96 0
-52 -96 0
-65 -96 0
-59 -96 0
-53 -96 0
54 -96 0
-55 -96 0
56 -96 0
96 -48 51 52 65 59 53 -54 55 -56  0
-96 95 0
-95 96  0
48 -98 0
-49 -98 0
-50 -98 0
-51 -98 0
52 -98 0
-59 -98 0
-53 -98 0
54 -98 0
-55 -98 0
-56 -98 0
98 -48 49 50 51 -52 59 53 -54 55 56  0
-98 97 0
-97 98  0
48 -100 0
-49 -100 0
-50 -100 0
-51 -100 0
52 -100 0
59 -100 0
53 -100 0
55 -100 0
100 -48 49 50 51 -52 -59 -53 -55  0
-100 99 0
-99 100  0
48 -102 0
-49 -102 0
-50 -102 0
-51 -102 0
52 -102 0
-59 -102 0
-53 -102 0
54 -102 0
-55 -102 0
56 -102 0
102 -48 49 50 51 -52 59 53 -54 55 -56  0
-102 101 0
-101 102  0
48 -104 0
-49 -104 0
-50 -104 0
-51 -104 0
52 -104 0
-59 -104 0
-53 -104 0
-54 -104 0
55 -104 0
-56 -104 0
104 -48 49 50 51 -52 59 53 54 -55 56  0
-104 103 0
-103 104  0
48 -106 0
-49 -106 0
-50 -106 0
51 -106 0
-52 -106 0
-59 -106 0
53 -106 0
-54 -106 0
55 -106 0
-56 -106 0
106 -48 49 50 -51 52 59 -53 54 -55 56  0
-106 105 0
-105 106  0
48 -108 0
-49 -108 0
-50 -108 0
51 -108 0
52 -108 0
-59 -108 0
53 -108 0
-54 -108 0
55 -108 0
108 -48 49 50 -51 -52 59 -53 54 -55  0
-108 107 0
-107 108  0
48 -110 0
-49 -110 0
-50 -110 0
51 -110 0
-52 -110 0
-59 -110 0
-53 -110 0
-54 -110 0
55 -110 0
110 -48 49 50 -51 52 59 53 54 -55  0
-110 109 0
-109 110  0
48 -112 0
-50 -112 0
-51 -112 0
52 -112 0
-59 -112 0
53 -112 0
54 -112 0
-55 -112 0
-56 -112 0
112 -48 50 51 -52 59 -53 -54 55 56  0
-112 111 0
-111 112  0
48 -114 0
-50 -114 0
-51 -114 0
52 -114 0
-59 -114 0
53 -114 0
54 -114 0
55 -114 0
-56 -114 0
114 -48 50 51 -52 59 -53 -54 -55 56  0
-114 113 0
-113 114  0
-48 -116 0
68 -116 0
53 -116 0
-54 -116 0
55 -116 0
56 -116 0
116 48 -68 -53 54 -55 -56  0
-116 115 0
-115 116  0
48 -118 0
-50 -118 0
-51 -118 0
52 -118 0
-59 -118 0
53 -118 0
54 -118 0
-55 -118 0
56 -118 0
118 -48 50 51 -52 59 -53 -54 55 -56  0
-118 117 0
-117 118  0
48 -121 0
-51 -121 0
119 -121 0
-53 -121 0
54 -121 0
55 -121 0
-56 -121 0
121 -48 51 -119 53 -54 -55 56  0
-121 120 0
-120 121  0
48 -123 0
-50 -123 0
119 -123 0
-53 -123 0
54 -123 0
55 -123 0
-56 -123 0
123 -48 50 -119 53 -54 -55 56  0
-123 122 0
-122 123  0
48 -125 0
-50 -125 0
51 -125 0
-52 -125 0
-59 -125 0
54 -125 0
55 -125 0
56 -125 0
125 -48 50 -51 52 59 -54 -55 -56  0
-125 124 0
-124 125  0
48 -127 0
-49 -127 0
-50 -127 0
51 -127 0
52 -127 0
-59 -127 0
-53 -127 0
-54 -127 0
127 -48 49 50 -51 -52 59 53 54  0
-127 126 0
-126 127  0
48 -129 0
-51 -129 0
-62 -129 0
-59 -129 0
53 -129 0
-55 -129 0
-56 -129 0
129 -48 51 62 59 -53 55 56  0
-129 128 0
-128 129  0
48 -131 0
50 -131 0
51 -131 0
53 -131 0
-54 -131 0
55 -131 0
56 -131 0
131 -48 -50 -51 -53 54 -55 -56  0
-131 130 0
-130 131  0
48 -133 0
-51 -133 0
-62 -133 0
-119 -133 0
-53 -133 0
54 -133 0
55 -133 0
133 -48 51 62 119 53 -54 -55  0
-133 132 0
-132 133  0
48 -135 0
-50 -135 0
-62 -135 0
-119 -135 0
-53 -135 0
54 -135 0
55 -135 0
135 -48 50 62 119 53 -54 -55  0
-135 134 0
-134 135  0
50 -137 0
51 -137 0
59 -137 0
53 -137 0
-54 -137 0
55 -137 0
137 -50 -51 -59 -53 54 -55  0
-137 136 0
-136 137  0
48 -139 0
-49 -139 0
-50 -139 0
-51 -139 0
52 -139 0
-59 -139 0
53 -139 0
-54 -139 0
56 -139 0
139 -48 49 50 51 -52 59 -53 54 -56  0
-139 138 0
-138 139  0
48 -141 0
-49 -141 0
-50 -141 0
-51 -141 0
52 -141 0
53 -141 0
-54 -141 0
55 -141 0
141 -48 49 50 51 -52 -53 54 -55  0
-141 140 0
-140 141  0
48 -143 0
49 -143 0
-51 -143 0
59 -143 0
53 -143 0
-54 -143 0
55 -143 0
-56 -143 0
143 -48 -49 51 -59 -53 54 -55 56  0
-143 142 0
-142 143  0
48 -145 0
-51 -145 0
-52 -145 0
-65 -145 0
59 -145 0
53 -145 0
-54 -145 0
56 -145 0
145 -48 51 52 65 -59 -53 54 -56  0
-145 144 0
-144 145  0
48 -147 0
-51 -147 0
-52 -147 0
-53 -147 0
54 -147 0
-55 -147 0
-56 -147 0
147 -48 51 52 53 -54 55 56  0
-147 146 0
-146 147  0
48 -149 0
-50 -149 0
-51 -149 0
52 -149 0
59 -149 0
-53 -149 0
55 -149 0
56 -149 0
149 -48 50 51 -52 -59 53 -55 -56  0
-149 148 0
-148 149  0
48 -151 0
-50 -151 0
-52 -151 0
59 -151 0
53 -151 0
-54 -151 0
55 -151 0
-56 -151 0
151 -48 50 52 -59 -53 54 -55 56  0
-151 150 0
-150 151  0
48 -153 0
-50 -153 0
51 -153 0
-59 -153 0
-53 -153 0
-54 -153 0
-55 -153 0
153 -48 50 -51 59 53 54 55  0
-153 152 0
-152 153  0
48 -155 0
49 -155 0
-51 -155 0
59 -155 0
53 -155 0
-54 -155 0
56 -155 0
155 -48 -49 51 -59 -53 54 -56  0
-155 154 0
-154 155  0
48 -157 0
-51 -157 0
-52 -157 0
-59 -157 0
53 -157 0
54 -157 0
55 -157 0
157 -48 51 52 59 -53 -54 -55  0
-157 156 0
-156 157  0
48 -159 0
-51 -159 0
-52 -159 0
-65 -159 0
-59 -159 0
53 -159 0
55 -159 0
159 -48 51 52 65 59 -53 -55  0
-159 158 0
-158 159  0
48 -161 0
49 -161 0
-50 -161 0
-59 -161 0
-53 -161 0
54 -161 0
-55 -161 0
161 -48 -49 50 59 53 -54 55  0
-161 160 0
-160 161  0
48 -163 0
-51 -163 0
-52 -163 0
-59 -163 0
53 -163 0
54 -163 0
-55 -163 0
56 -163 0
163 -48 51 52 59 -53 -54 55 -56  0
-163 162 0
-162 163  0
48 -165 0
50 -165 0
-51 -165 0
-59 -165 0
-53 -165 0
54 -165 0
-55 -165 0
165 -48 -50 51 59 53 -54 55  0
-165 164 0
-164 165  0
48 -167 0
-49 -167 0
-50 -167 0
-51 -167 0
52 -167 0
-59 -167 0
-53 -167 0
-54 -167 0
56 -167 0
167 -48 49 50 51 -52 59 53 54 -56  0
-167 166 0
-166 167  0
48 -169 0
-50 -169 0
51 -169 0
-59 -169 0
-53 -169 0
54 -169 0
-55 -169 0
169 -48 50 -51 59 53 -54 55  0
-169 168 0
-168 169  0
48 -171 0
51 -171 0
52 -171 0
59 -171 0
-53 -171 0
55 -171 0
56 -171 0
171 -48 -51 -52 -59 53 -55 -56  0
-171 170 0
-170 171  0
48 -173 0
-50 -173 0
51 -173 0
52 -173 0
54 -173 0
56 -173 0
173 -48 50 -51 -52 -54 -56  0
-173 172 0
-172 173  0
48 -175 0
50 -175 0
53 -175 0
54 -175 0
-55 -175 0
56 -175 0
175 -48 -50 -53 -54 55 -56  0
-175 174 0
-174 175  0
48 -177 0
49 -177 0
-50 -177 0
-53 -177 0
-55 -177 0
56 -177 0
177 -48 -49 50 53 55 -56  0
-177 176 0
-176 177  0
48 -179 0
-50 -179 0
51 -179 0
59 -179 0
53 -179 0
-54 -179 0
55 -179 0
-56 -179 0
179 -48 50 -51 -59 -53 54 -55 56  0
-179 178 0
-178 179  0
48 -181 0
-50 -181 0
52 -181 0
-59 -181 0
53 -181 0
54 -181 0
-56 -181 0
181 -48 50 -52 59 -53 -54 56  0
-181 180 0
-180 181  0
48 -183 0
51 -183 0
-59 -183 0
53 -183 0
54 -183 0
-55 -183 0
56 -183 0
183 -48 -51 59 -53 -54 55 -56  0
-183 182 0
-182 183  0
48 -185 0
49 -185 0
-51 -185 0
-59 -185 0
53 -185 0
-54 -185 0
56 -185 0
185 -48 -49 51 59 -53 54 -56  0
-185 184 0
-184 185  0
48 -187 0
-50 -187 0
-51 -187 0
-52 -187 0
-59 -187 0
55 -187 0
56 -187 0
187 -48 50 51 52 59 -55 -56  0
-187 186 0
-186 187  0
48 -189 0
50 -189 0
-51 -189 0
-59 -189 0
53 -189 0
-54 -189 0
56 -189 0
189 -48 -50 51 59 -53 54 -56  0
-189 188 0
-188 189  0
-48 -191 0
59 -191 0
53 -191 0
-54 -191 0
55 -191 0
191 48 -59 -53 54 -55  0
-191 190 0
-190 191  0
48 -193 0
-51 -193 0
-52 -193 0
59 -193 0
-53 -193 0
55 -193 0
56 -193 0
193 -48 51 52 -59 53 -55 -56  0
-193 192 0
-192 193  0
48 -195 0
-51 -195 0
-52 -195 0
-59 -195 0
53 -195 0
-54 -195 0
56 -195 0
195 -48 51 52 59 -53 54 -56  0
-195 194 0
-194 195  0
49 -197 0
59 -197 0
53 -197 0
-55 -197 0
56 -197 0
197 -49 -59 -53 55 -56  0
-197 196 0
-196 197  0
48 -199 0
50 -199 0
-59 -199 0
53 -199 0
54 -199 0
-55 -199 0
199 -48 -50 59 -53 -54 55  0
-199 198 0
-198 199  0
48 -201 0
50 -201 0
-51 -201 0
59 -201 0
53 -201 0
-54 -201 0
56 -201 0
201 -48 -50 51 -59 -53 54 -56  0
-201 200 0
-200 201  0
48 -203 0
-51 -203 0
-59 -203 0
53 -203 0
54 -203 0
55 -203 0
203 -48 51 59 -53 -54 -55  0
-203 202 0
-202 203  0
48 -205 0
-50 -205 0
51 -205 0
-59 -205 0
53 -205 0
54 -205 0
55 -205 0
205 -48 50 -51 59 -53 -54 -55  0
-205 204 0
-204 205  0
48 -207 0
-50 -207 0
51 -207 0
-59 -207 0
53 -207 0
-54 -207 0
56 -207 0
207 -48 50 -51 59 -53 54 -56  0
-207 206 0
-206 207  0
48 -209 0
49 -209 0
-50 -209 0
-59 -209 0
-53 -209 0
-54 -209 0
209 -48 -49 50 59 53 54  0
-209 208 0
-208 209  0
48 -211 0
50 -211 0
59 -211 0
-53 -211 0
55 -211 0
56 -211 0
211 -48 -50 -59 53 -55 -56  0
-211 210 0
-210 211  0
48 -213 0
50 -213 0
-51 -213 0
-59 -213 0
53 -213 0
55 -213 0
213 -48 -50 51 59 -53 -55  0
-213 212 0
-212 213  0
48 -215 0
50 -215 0
-51 -215 0
-53 -215 0
56 -215 0
215 -48 -50 51 53 -56  0
-215 214 0
-214 215  0
48 -217 0
-51 -217 0
-59 -217 0
-53 -217 0
-54 -217 0
55 -217 0
217 -48 51 59 53 54 -55  0
-217 216 0
-216 217  0
48 -219 0
49 -219 0
-50 -219 0
53 -219 0
-54 -219 0
55 -219 0
219 -48 -49 50 -53 54 -55  0
-219 218 0
-218 219  0
59 -221 0
-53 -221 0
-54 -221 0
-56 -221 0
221 -59 53 54 56  0
-221 220 0
-220 221  0
-65 -223 0
59 -223 0
-53 -223 0
54 -223 0
-56 -223 0
223 65 -59 53 -54 56  0
-223 222 0
-222 223  0
48 -225 0
-50 -225 0
51 -225 0
59 -225 0
53 -225 0
-54 -225 0
56 -225 0
225 -48 50 -51 -59 -53 54 -56  0
-225 224 0
-224 225  0
48 -227 0
-50 -227 0
-59 -227 0
54 -227 0
55 -227 0
56 -227 0
227 -48 50 59 -54 -55 -56  0
-227 226 0
-226 227  0
48 -229 0
-51 -229 0
-59 -229 0
54 -229 0
55 -229 0
56 -229 0
229 -48 51 59 -54 -55 -56  0
-229 228 0
-228 229  0
48 -231 0
49 -231 0
-59 -231 0
-53 -231 0
-54 -231 0
56 -231 0
231 -48 -49 59 53 54 -56  0
-231 230 0
-230 231  0
48 -233 0
49 -233 0
-59 -233 0
-53 -233 0
-54 -233 0
55 -233 0
233 -48 -49 59 53 54 -55  0
-233 232 0
-232 233  0
48 -235 0
-51 -235 0
-59 -235 0
53 -235 0
54 -235 0
-56 -235 0
235 -48 51 59 -53 -54 56  0
-235 234 0
-234 235  0
48 -237 0
49 -237 0
-51 -237 0
-59 -237 0
-53 -237 0
-54 -237 0
237 -48 -49 51 59 53 54  0
-237 236 0
-236 237  0
48 -239 0
-51 -239 0
53 -239 0
-54 -239 0
55 -239 0
239 -48 51 -53 54 -55  0
-239 238 0
-238 239  0
48 -241 0
-51 -241 0
-59 -241 0
-54 -241 0
56 -241 0
241 -48 51 59 54 -56  0
-241 240 0
-240 241  0
59 -243 0
53 -243 0
54 -243 0
-55 -243 0
-56 -243 0
243 -59 -53 -54 55 56  0
-243 242 0
-242 243  0
59 -245 0
-53 -245 0
54 -245 0
-55 -245 0
56 -245 0
245 -59 53 -54 55 -56  0
-245 244 0
-244 245  0
65 -247 0
59 -247 0
-53 -247 0
54 -247 0
-56 -247 0
247 -65 -59 53 -54 56  0
-247 246 0
-246 247  0
59 -249 0
-54 -249 0
-55 -249 0
-56 -249 0
249 -59 54 55 56  0
-249 248 0
-248 249  0
59 -251 0
-53 -251 0
55 -251 0
-56 -251 0
251 -59 53 -55 56  0
-251 250 0
-250 251  0
59 -253 0
54 -253 0
55 -253 0
-56 -253 0
253 -59 -54 -55 56  0
-253 252 0
-252 253  0
59 -255 0
54 -255 0
56 -255 0
255 -59 -54 -56  0
-255 254 0
-254 255  0
59 -257 0
-54 -257 0
-55 -257 0
56 -257 0
257 -59 54 55 -56  0
-257 256 0
-256 257  0
59 -259 0
-53 -259 0
54 -259 0
55 -259 0
259 -59 53 -54 -55  0
-259 258 0
-258 259  0
-71 -262 0
-73 -262 0
-83 -262 0
-85 -262 0
-93 -262 0
-97 -262 0
-101 -262 0
-103 -262 0
-105 -262 0
-109 -262 0
-111 -262 0
-113 -262 0
-117 -262 0
-138 -262 0
-260 -262 0
-261 -262 0
- -262 0
- -262 0
- -262 0
- -262 0
- -262 0
- -262 0
- -262 0
- -262 0
- -262 0
- -262 0
- -262 0
- -262 0
- -262 0
- -262 0
- -262 0
- -262 0
262 71 73 83 85 93 97 101 103 105 109 111 113 117 138 260 261                  0
-262 261 0
-261 262  0
-66 -265 0
-71 -265 0
-73 -265 0
-75 -265 0
-87 -265 0
-105 -265 0
-107 -265 0
-109 -265 0
-120 -265 0
-122 -265 0
-124 -265 0
-128 -265 0
-142 -265 0
-144 -265 0
-150 -265 0
-263 -265 0
-264 -265 0
- -265 0
- -265 0
- -265 0
- -265 0
- -265 0
- -265 0
- -265 0
- -265 0
- -265 0
- -265 0
- -265 0
- -265 0
- -265 0
- -265 0
- -265 0
- -265 0
- -265 0
- -265 0
- -265 0
- -265 0
- -265 0
265 66 71 73 75 87 105 107 109 120 122 124 128 142 144 150 263 264                       0
-265 264 0
-264 265  0
-63 -268 0
-79 -268 0
-81 -268 0
-89 -268 0
-93 -268 0
-95 -268 0
-101 -268 0
-103 -268 0
-105 -268 0
-126 -268 0
-132 -268 0
-134 -268 0
-138 -268 0
-140 -268 0
-266 -268 0
-267 -268 0
- -268 0
- -268 0
- -268 0
- -268 0
- -268 0
- -268 0
- -268 0
- -268 0
- -268 0
- -268 0
- -268 0
- -268 0
- -268 0
- -268 0
- -268 0
- -268 0
- -268 0
- -268 0
- -268 0
- -268 0
- -268 0
268 63 79 81 89 93 95 101 103 105 126 132 134 138 140 266 267                       0
-268 267 0
-267 268  0
-63 -271 0
-71 -271 0
-75 -271 0
-81 -271 0
-89 -271 0
-97 -271 0
-107 -271 0
-111 -271 0
-126 -271 0
-132 -271 0
-134 -271 0
-142 -271 0
-144 -271 0
-150 -271 0
-152 -271 0
-269 -271 0
-270 -271 0
- -271 0
- -271 0
- -271 0
- -271 0
- -271 0
- -271 0
- -271 0
- -271 0
- -271 0
- -271 0
- -271 0
- -271 0
- -271 0
- -271 0
- -271 0
- -271 0
- -271 0
- -271 0
- -271 0
- -271 0
- -271 0
271 63 71 75 81 89 97 107 111 126 132 134 142 144 150 152 269 270                       0
-271 270 0
-270 271  0
-66 -273 0
-75 -273 0
-95 -273 0
-99 -273 0
-103 -273 0
-113 -273 0
-117 -273 0
-124 -273 0
-144 -273 0
-148 -273 0
-154 -273 0
-162 -273 0
-170 -273 0
-172 -273 0
-272 -273 0
-261 -273 0
- -273 0
- -273 0
- -273 0
- -273 0
- -273 0
- -273 0
- -273 0
- -273 0
- -273 0
- -273 0
- -273 0
- -273 0
- -273 0
- -273 0
- -273 0
- -273 0
- -273 0
- -273 0
273 66 75 95 99 103 113 117 124 144 148 154 162 170 172 272 261                    0
-273 261 0
-261 273  0
-66 -275 0
-77 -275 0
-79 -275 0
-81 -275 0
-89 -275 0
-93 -275 0
-126 -275 0
-142 -275 0
-150 -275 0
-178 -275 0
-184 -275 0
-188 -275 0
-194 -275 0
-206 -275 0
275 66 77 79 81 89 93 126 142 150 178 184 188 194 206  0
-275 274 0
-274 275  0
-63 -277 0
-75 -277 0
-95 -277 0
-97 -277 0
-101 -277 0
-105 -277 0
-107 -277 0
-138 -277 0
-146 -277 0
-160 -277 0
-164 -277 0
-168 -277 0
-178 -277 0
-184 -277 0
-276 -277 0
- -277 0
- -277 0
- -277 0
- -277 0
- -277 0
- -277 0
- -277 0
- -277 0
- -277 0
- -277 0
277 63 75 95 97 101 105 107 138 146 160 164 168 178 184 276            0
-277 276 0
-276 277  0
-69 -280 0
-73 -280 0
-83 -280 0
-85 -280 0
-91 -280 0
-93 -280 0
-97 -280 0
-101 -280 0
-103 -280 0
-105 -280 0
-109 -280 0
-111 -280 0
-113 -280 0
-115 -280 0
-278 -280 0
-279 -280 0
- -280 0
- -280 0
- -280 0
- -280 0
- -280 0
- -280 0
- -280 0
- -280 0
- -280 0
- -280 0
- -280 0
- -280 0
- -280 0
- -280 0
280 69 73 83 85 91 93 97 101 103 105 109 111 113 115 278 279                0
-280 279 0
-279 280  0
-57 -281 0
-60 -281 0
-107 -281 0
281 57 60 107  0
-281 12 0
-12 281  0
-69 -282 0
-71 -282 0
-91 -282 0
-93 -282 0
-113 -282 0
-115 -282 0
-130 -282 0
-136 -282 0
-138 -282 0
-190 -282 0
-246 -282 0
282 69 71 91 93 113 115 130 136 138 190 246  0
-282 15 0
-15 282  0
-222 -283 0
-242 -283 0
-248 -283 0
-250 -283 0
-252 -283 0
-254 -283 0
-256 -283 0
283 222 242 248 250 252 254 256  0
-283 18 0
-18 283  0
-73 -284 0
-83 -284 0
-85 -284 0
-97 -284 0
-103 -284 0
-105 -284 0
-109 -284 0
-111 -284 0
284 73 83 85 97 103 105 109 111  0
-284 21 0
-21 284  0
-93 -285 0
-97 -285 0
-101 -285 0
-117 -285 0
-148 -285 0
-216 -285 0
-234 -285 0
-238 -285 0
-240 -285 0
-246 -285 0
-250 -285 0
-252 -285 0
-258 -285 0
285 93 97 101 117 148 216 234 238 240 246 250 252 258  0
-285 24 0
-24 285  0
-79 -286 0
-93 -286 0
-126 -286 0
286 79 93 126  0
-286 27 0
-27 286  0
-89 -287 0
-126 -287 0
-228 -287 0
287 89 126 228  0
-287 30 0
-30 287  0
